
Gurobi 11.0.0 (linux64) logging started Fri Apr 12 22:43:25 2024

Set parameter LogFile to value "/lustre1/scratch/348/vsc34888/JointResearch/05.Models/06.Benchmarking/K.Investments_per_hour/9n_ByStages_nc20/openStarNet_9n_ByStages_nc20.log"
Set parameter Method to value 2
Set parameter MIPFocus to value 1
Set parameter Presolve to value 2
Set parameter RINS to value 100
Set parameter MIPGap to value 0.01
Set parameter Threads to value 36
Set parameter TimeLimit to value 259200
Set parameter IterationLimit to value 760000000
Gurobi Optimizer version 11.0.0 build v11.0.0rc2 (linux64 - "Rocky Linux 8.8 (Green Obsidian)")

CPU model: Intel(R) Xeon(R) Gold 6140 CPU @ 2.30GHz, instruction set [SSE2|AVX|AVX2|AVX512]
Thread count: 36 physical cores, 36 logical processors, using up to 36 threads

Optimize a model with 5243 rows, 2793 columns and 15807 nonzeros
Model fingerprint: 0xffa7e9e3
Variable types: 2757 continuous, 36 integer (36 binary)
Coefficient statistics:
  Matrix range     [8e-04, 3e+03]
  Objective range  [1e+00, 1e+00]
  Bounds range     [4e-04, 2e+00]
  RHS range        [4e-04, 1e+00]
Presolve removed 1783 rows and 944 columns
Presolve time: 0.02s
Presolved: 3460 rows, 1849 columns, 11813 nonzeros
Variable types: 1813 continuous, 36 integer (36 binary)
Found heuristic solution: objective 813.5685718
Root relaxation presolved: 3460 rows, 1849 columns, 11813 nonzeros

Root barrier log...

Ordering time: 0.10s

Barrier statistics:
 AA' NZ     : 1.475e+05
 Factor NZ  : 8.000e+05 (roughly 9 MB of memory)
 Factor Ops : 3.065e+08 (less than 1 second per iteration)
 Threads    : 36

                  Objective                Residual
Iter       Primal          Dual         Primal    Dual     Compl     Time
   0   4.63255290e+05 -2.31730745e+07  7.08e+00 5.87e+02  1.31e+04     0s
   1   6.02159985e+04 -9.34437617e+06  8.81e-01 1.52e-10  1.95e+03     0s
   2   1.24930028e+04 -6.10874216e+06  2.74e-02 1.13e-10  9.11e+02     0s
   3   6.27133110e+03 -1.01356780e+05  1.09e-14 3.48e-11  1.58e+01     0s
   4   1.26840590e+03 -7.85983209e+03  1.24e-14 3.64e-12  1.34e+00     0s
   5   6.64925700e+02 -1.72594423e+03  2.66e-14 1.82e-12  3.51e-01     0s
   6   3.33155032e+02 -3.75889524e+02  1.20e-13 1.82e-12  1.04e-01     0s
   7   1.91492784e+02 -5.09578497e+01  1.49e-13 3.64e-12  3.56e-02     0s
   8   1.16177933e+02  5.01750180e+01  2.15e-13 3.64e-12  9.68e-03     0s
   9   9.90648776e+01  8.34867338e+01  6.37e-13 1.82e-12  2.28e-03     1s
  10   9.42043740e+01  8.73610667e+01  4.28e-12 1.82e-12  1.00e-03     1s
  11   9.26570926e+01  8.79233669e+01  3.94e-12 1.82e-12  6.94e-04     1s
  12   9.07105272e+01  8.94159853e+01  2.09e-11 1.82e-12  1.90e-04     1s
  13   9.03337012e+01  9.00774183e+01  1.01e-11 1.82e-12  3.76e-05     1s
  14   9.02248313e+01  9.02220617e+01  4.61e-12 2.73e-12  4.06e-07     1s
  15   9.02240492e+01  9.02240488e+01  2.69e-12 3.64e-12  5.87e-11     1s

Barrier solved model in 15 iterations and 0.68 seconds (0.15 work units)
Optimal objective 9.02240492e+01


Root relaxation: objective 9.022405e+01, 233 iterations, 0.67 seconds (0.12 work units)

    Nodes    |    Current Node    |     Objective Bounds      |     Work
 Expl Unexpl |  Obj  Depth IntInf | Incumbent    BestBd   Gap | It/Node Time

     0     0   90.22405    0    5  813.56857   90.22405  88.9%     -    0s
H    0     0                     659.9086380   90.22405  86.3%     -    0s
H    0     0                      98.7230923   90.22405  8.61%     -    0s

Cutting planes:
  Gomory: 2
  Implied bound: 2
  MIR: 33
  Relax-and-lift: 1

Explored 1 nodes (233 simplex iterations) in 0.83 seconds (0.18 work units)
Thread count was 36 (of 36 available processors)

Solution count 3: 98.7231 659.909 813.569 

Optimal solution found (tolerance 1.00e-02)
Best objective 9.872309231450e+01, best bound 9.835251170787e+01, gap 0.3754%

Gurobi 11.0.0 (linux64) logging started Fri Apr 12 22:43:26 2024

Set parameter LogFile to value "/lustre1/scratch/348/vsc34888/JointResearch/05.Models/06.Benchmarking/K.Investments_per_hour/9n_ByStages_nc20/openStarNet_9n_ByStages_nc20.log"
Set parameter Method to value 2
Set parameter MIPFocus to value 1
Set parameter Presolve to value 2
Set parameter RINS to value 100
Set parameter MIPGap to value 0.01
Set parameter Threads to value 36
Set parameter TimeLimit to value 259200
Set parameter IterationLimit to value 760000000
Gurobi Optimizer version 11.0.0 build v11.0.0rc2 (linux64 - "Rocky Linux 8.8 (Green Obsidian)")

CPU model: Intel(R) Xeon(R) Gold 6140 CPU @ 2.30GHz, instruction set [SSE2|AVX|AVX2|AVX512]
Thread count: 36 physical cores, 36 logical processors, using up to 36 threads

Optimize a model with 5243 rows, 2757 columns and 12891 nonzeros
Model fingerprint: 0x1fed4174
Coefficient statistics:
  Matrix range     [8e-04, 3e+03]
  Objective range  [1e+00, 1e+00]
  Bounds range     [4e-04, 2e+00]
  RHS range        [4e-04, 2e+01]
Presolve removed 4763 rows and 1833 columns
Presolve time: 0.01s
Presolved: 480 rows, 935 columns, 2117 nonzeros

Ordering time: 0.00s

Barrier statistics:
 AA' NZ     : 1.111e+03
 Factor NZ  : 3.984e+03 (roughly 1 MB of memory)
 Factor Ops : 3.990e+04 (less than 1 second per iteration)
 Threads    : 1

                  Objective                Residual
Iter       Primal          Dual         Primal    Dual     Compl     Time
   0   3.36529147e+05 -4.14323051e+06  5.27e+00 9.31e+02  9.45e+03     0s
   1   4.31985563e+04 -2.08167232e+06  4.98e-01 8.23e-12  1.44e+03     0s
   2   1.02605357e+04 -2.71310375e+05  5.43e-03 7.39e-12  1.32e+02     0s
   3   2.76340181e+03 -6.12288445e+03  1.28e-15 5.00e-12  4.14e+00     0s
   4   5.91880423e+02 -6.76673857e+02  1.67e-15 3.64e-12  5.91e-01     0s
   5   3.37654116e+02 -2.01416821e+02  1.39e-15 1.82e-12  2.51e-01     0s
   6   1.81656160e+02  2.10154332e+00  1.55e-15 1.82e-12  8.36e-02     0s
   7   1.13959530e+02  7.09799419e+01  3.05e-15 1.82e-12  2.00e-02     0s
   8   1.03865191e+02  8.66327110e+01  1.23e-14 1.82e-12  8.02e-03     0s
   9   9.93322858e+01  9.70944048e+01  5.19e-14 3.64e-12  1.04e-03     0s
  10   9.87847731e+01  9.85757788e+01  2.23e-14 2.73e-12  9.73e-05     0s
  11   9.87312502e+01  9.87183311e+01  1.79e-14 1.82e-12  6.01e-06     0s
  12   9.87246682e+01  9.87222269e+01  2.17e-14 1.82e-12  1.14e-06     0s
  13   9.87230925e+01  9.87230920e+01  1.49e-14 1.82e-12  2.22e-10     0s

Barrier solved model in 13 iterations and 0.01 seconds (0.01 work units)
Optimal objective 9.87230925e+01

Crossover log...

     229 DPushes remaining with DInf 0.0000000e+00                 0s
       0 DPushes remaining with DInf 0.0000000e+00                 0s

       7 PPushes remaining with PInf 0.0000000e+00                 0s
       0 PPushes remaining with PInf 0.0000000e+00                 0s

  Push phase complete: Pinf 0.0000000e+00, Dinf 7.2884407e-14      0s

Iteration    Objective       Primal Inf.    Dual Inf.      Time
      20    9.8723092e+01   0.000000e+00   0.000000e+00      0s

Solved in 20 iterations and 0.02 seconds (0.01 work units)
Optimal objective  9.872309231e+01
